(set-info :smt-lib-version 2.6)
(set-logic QF_NIA)
(set-info :source |AProve team, see http://aprove.informatik.rwth-aachen.de/, submitted for SMT-COMP 2014|)
(set-info :category "industrial")
(set-info :status sat)
(declare-fun a__5 () Int)
(declare-fun a__2 () Int)
(declare-fun a__4 () Int)
(declare-fun a__7 () Int)
(declare-fun a__10 () Int)
(declare-fun a__13 () Int)
(declare-fun a__15 () Int)
(declare-fun a__19 () Int)
(declare-fun a__23 () Int)
(declare-fun a__27 () Int)
(declare-fun a__31 () Int)
(declare-fun a__34 () Int)
(declare-fun a__36 () Int)
(declare-fun a__39 () Int)
(declare-fun a__42 () Int)
(declare-fun a__44 () Int)
(declare-fun a__48 () Int)
(declare-fun a__52 () Int)
(declare-fun a__56 () Int)
(declare-fun a__60 () Int)
(declare-fun a__63 () Int)
(declare-fun a__65 () Int)
(declare-fun a__69 () Int)
(declare-fun a__73 () Int)
(declare-fun a__77 () Int)
(declare-fun a__81 () Int)
(declare-fun a__84 () Int)
(declare-fun a__86 () Int)
(declare-fun a__89 () Int)
(declare-fun a__92 () Int)
(declare-fun a__94 () Int)
(declare-fun a__98 () Int)
(declare-fun a__101 () Int)
(declare-fun a__104 () Int)
(declare-fun a__106 () Int)
(declare-fun a__109 () Int)
(declare-fun a__112 () Int)
(declare-fun a__114 () Int)
(declare-fun a__117 () Int)
(declare-fun a__3 () Int)
(declare-fun a__6 () Int)
(declare-fun a__9 () Int)
(declare-fun a__12 () Int)
(declare-fun a__14 () Int)
(declare-fun a__18 () Int)
(declare-fun a__22 () Int)
(declare-fun a__26 () Int)
(declare-fun a__30 () Int)
(declare-fun a__33 () Int)
(declare-fun a__35 () Int)
(declare-fun a__38 () Int)
(declare-fun a__41 () Int)
(declare-fun a__43 () Int)
(declare-fun a__47 () Int)
(declare-fun a__51 () Int)
(declare-fun a__55 () Int)
(declare-fun a__59 () Int)
(declare-fun a__62 () Int)
(declare-fun a__64 () Int)
(declare-fun a__68 () Int)
(declare-fun a__72 () Int)
(declare-fun a__76 () Int)
(declare-fun a__80 () Int)
(declare-fun a__83 () Int)
(declare-fun a__85 () Int)
(declare-fun a__88 () Int)
(declare-fun a__91 () Int)
(declare-fun a__93 () Int)
(declare-fun a__97 () Int)
(declare-fun a__100 () Int)
(declare-fun a__103 () Int)
(declare-fun a__105 () Int)
(declare-fun a__108 () Int)
(declare-fun a__111 () Int)
(declare-fun a__113 () Int)
(declare-fun a__116 () Int)
(assert (and (>= (+ (* a__5 a__2) (* (- 0 1) a__2)) 0) (>= (+ (* a__4 a__2) (* (- 0 1) a__2)) 0) (>= (+ (* a__7 a__2) (* (- 0 1) a__2)) 0) (>= (+ (* a__10 a__2) (* (- 0 1) a__2)) 0) (>= (+ (* a__13 a__2) (* (- 0 1) a__2)) 0) (>= (+ (* a__15 a__2) (* (- 0 1) a__2)) 0) (>= (+ (* a__19 a__2) (* (- 0 1) a__2)) 0) (>= (+ (* a__23 a__2) (* (- 0 1) a__2)) 0) (>= (+ (* a__27 a__2) (* (- 0 1) a__2)) 0) (>= (+ (* a__31 a__2) (* (- 0 1) a__2)) 0) (>= (+ (* a__34 a__2) (* (- 0 1) a__2)) 0) (>= (+ (* a__36 a__2) (* (- 0 1) a__2)) 0) (>= (+ (* a__39 a__2) (* (- 0 1) a__2)) 0) (>= (+ (* a__42 a__2) (* (- 0 1) a__2)) 0) (>= (+ (* a__44 a__2) (* (- 0 1) a__2)) 0) (>= (+ (* a__48 a__2) (* (- 0 1) a__2)) 0) (>= (+ (* a__52 a__2) (* (- 0 1) a__2)) 0) (>= (+ (* a__56 a__2) (* (- 0 1) a__2)) 0) (>= (+ (* a__60 a__2) (* (- 0 1) a__2)) 0) (>= (+ (* a__63 a__2) (* (- 0 1) a__2)) 0) (>= (+ (* a__65 a__2) (* (- 0 1) a__2)) 0) (>= (+ (* a__69 a__2) (* (- 0 1) a__2)) 0) (>= (+ (* a__73 a__2) (* (- 0 1) a__2)) 0) (>= (+ (* a__77 a__2) (* (- 0 1) a__2)) 0) (>= (+ (* a__81 a__2) (* (- 0 1) a__2)) 0) (>= (+ (* a__84 a__2) (* (- 0 1) a__2)) 0) (>= (+ (* a__86 a__2) (* (- 0 1) a__2)) 0) (>= (+ (* a__89 a__2) (* (- 0 1) a__2)) 0) (>= (+ (* a__92 a__2) (* (- 0 1) a__2)) 0) (>= (+ (* a__94 a__2) (* (- 0 1) a__2)) 0) (>= (+ (* a__98 a__2) (* (- 0 1) a__2)) 0) (>= (+ (* a__101 a__2) (* (- 0 1) a__2)) 0) (>= (+ (* a__104 a__2) (* (- 0 1) a__2)) 0) (>= (+ (* a__106 a__2) (* (- 0 1) a__2)) 0) (>= (+ (* a__109 a__2) (* (- 0 1) a__2)) 0) (>= (+ (* a__112 a__2) (* (- 0 1) a__2)) 0) (>= (+ (* a__114 a__2) (* (- 0 1) a__2)) 0) (>= (+ (* a__117 a__2) (* (- 0 1) a__2)) 0) (>= (* a__3 a__2) 0) (>= (* a__6 a__2) 0) (>= (* a__9 a__2) 0) (>= (* a__12 a__2) 0) (>= (* a__14 a__2) 0) (>= (* a__18 a__2) 0) (>= (* a__22 a__2) 0) (>= (* a__26 a__2) 0) (>= (* a__30 a__2) 0) (>= (* a__33 a__2) 0) (>= (* a__35 a__2) 0) (>= (* a__38 a__2) 0) (>= (* a__41 a__2) 0) (>= (* a__43 a__2) 0) (>= (* a__47 a__2) 0) (>= (* a__51 a__2) 0) (>= (* a__55 a__2) 0) (>= (* a__59 a__2) 0) (>= (* a__62 a__2) 0) (>= (* a__64 a__2) 0) (>= (* a__68 a__2) 0) (>= (* a__72 a__2) 0) (>= (* a__76 a__2) 0) (>= (* a__80 a__2) 0) (>= (* a__83 a__2) 0) (>= (* a__85 a__2) 0) (>= (* a__88 a__2) 0) (>= (* a__91 a__2) 0) (>= (* a__93 a__2) 0) (>= (* a__97 a__2) 0) (>= (* a__100 a__2) 0) (>= (* a__103 a__2) 0) (>= (* a__105 a__2) 0) (>= (* a__108 a__2) 0) (>= (* a__111 a__2) 0) (>= (* a__113 a__2) 0) (>= (* a__116 a__2) 0) (not (and (= (* a__3 a__2) 0) (= (* a__6 a__2) 0) (= (* a__9 a__2) 0) (= (* a__12 a__2) 0) (= (* a__14 a__2) 0) (= (* a__18 a__2) 0) (= (* a__22 a__2) 0) (= (* a__26 a__2) 0) (= (* a__30 a__2) 0) (= (* a__33 a__2) 0) (= (* a__35 a__2) 0) (= (* a__38 a__2) 0) (= (* a__41 a__2) 0) (= (* a__43 a__2) 0) (= (* a__47 a__2) 0) (= (* a__51 a__2) 0) (= (* a__55 a__2) 0) (= (* a__59 a__2) 0) (= (* a__62 a__2) 0) (= (* a__64 a__2) 0) (= (* a__68 a__2) 0) (= (* a__72 a__2) 0) (= (* a__76 a__2) 0) (= (* a__80 a__2) 0) (= (* a__83 a__2) 0) (= (* a__85 a__2) 0) (= (* a__88 a__2) 0) (= (* a__91 a__2) 0) (= (* a__93 a__2) 0) (= (* a__97 a__2) 0) (= (* a__100 a__2) 0) (= (* a__103 a__2) 0) (= (* a__105 a__2) 0) (= (* a__108 a__2) 0) (= (* a__111 a__2) 0) (= (* a__113 a__2) 0) (= (* a__116 a__2) 0))) (>= a__5 0) (>= a__2 0) (>= a__4 0) (>= a__7 0) (>= a__10 0) (>= a__13 0) (>= a__15 0) (>= a__19 0) (>= a__23 0) (>= a__27 0) (>= a__31 0) (>= a__34 0) (>= a__36 0) (>= a__39 0) (>= a__42 0) (>= a__44 0) (>= a__48 0) (>= a__52 0) (>= a__56 0) (>= a__60 0) (>= a__63 0) (>= a__65 0) (>= a__69 0) (>= a__73 0) (>= a__77 0) (>= a__81 0) (>= a__84 0) (>= a__86 0) (>= a__89 0) (>= a__92 0) (>= a__94 0) (>= a__98 0) (>= a__101 0) (>= a__104 0) (>= a__106 0) (>= a__109 0) (>= a__112 0) (>= a__114 0) (>= a__117 0) (>= a__3 0) (>= a__6 0) (>= a__9 0) (>= a__12 0) (>= a__14 0) (>= a__18 0) (>= a__22 0) (>= a__26 0) (>= a__30 0) (>= a__33 0) (>= a__35 0) (>= a__38 0) (>= a__41 0) (>= a__43 0) (>= a__47 0) (>= a__51 0) (>= a__55 0) (>= a__59 0) (>= a__62 0) (>= a__64 0) (>= a__68 0) (>= a__72 0) (>= a__76 0) (>= a__80 0) (>= a__83 0) (>= a__85 0) (>= a__88 0) (>= a__91 0) (>= a__93 0) (>= a__97 0) (>= a__100 0) (>= a__103 0) (>= a__105 0) (>= a__108 0) (>= a__111 0) (>= a__113 0) (>= a__116 0)))
(check-sat)
;;(get-assignment)
;;(get-model)
(exit)
